#######################################
### Exact MIP solver for the HHCRSP ###
#######################################
-- Instance file: new-instances/HHCRSP_200_40_26_1.2_R_RC.txt
-- Max threads: 4
-- Time limit: 999999 seconds
-- Use initial solution: No
Trivial flow violations prevented generating 339059 variables.
Version identifier: 20.1.0.0 | 2020-11-10 | 9bedb6d68
CPXPARAM_Threads                                 4
CPXPARAM_TimeLimit                               999999
Parallel mode: deterministic, using up to 4 threads for concurrent optimization:
 * Starting dual Simplex on 1 thread...
 * Starting Barrier on 3 threads...
Tried aggregator 1 time.
LP Presolve eliminated 18078 rows and 3196 columns.
Reduced LP has 294092 rows, 280138 columns, and 4713165 nonzeros.
Presolve time = 8.08 sec. (1113.65 ticks)
Symmetry aggregator did 396743 additional substitutions.
Initializing dual steep norms . . .

Iteration log . . .
Iteration:     1   Dual objective     =             0.666667
Iteration:   916   Dual objective     =           286.333333

Dual crossover.
  Dual:  Fixing 859 variables.
      858 DMoves:  Infeasibility  2.28206358e-13  Objective  2.87333333e+02
        0 DMoves:  Infeasibility  2.72837324e-13  Objective  2.87333333e+02
  Dual:  Pushed 25, exchanged 834.
  Primal:  Fixing 301 variables.
      300 PMoves:  Infeasibility  2.77555756e-16  Objective  2.87333333e+02
        0 PMoves:  Infeasibility  4.44089210e-16  Objective  2.87333333e+02
  Primal:  Pushed 200, exchanged 101.

Dual simplex solved model.


Solution status from MIP model:
-- Processing time: 14.82 sec.
-- Memory used: 343.607 MB
-- Best bound: inf
-- Obj value: 287.333
-- Gap: inf%
-- Total distance: 862
-- Total tardiness: 0
-- Largest tardiness: 0
